#######################



#######################
Set parameter TimeLimit to value 300
Set parameter SoftMemLimit to value 125
Set parameter MIPFocus to value 3
Set parameter LogFile to value 1202-MIPFocus3-Presolve1-TimeLimit300-k16x240-1.log
Set parameter Presolve to value 1
Set parameter Seed to value 1
Using license file /opt/gurobi/gurobi.lic

Gurobi Optimizer version 12.0.2 build v12.0.2rc0 (linux64 - "Ubuntu 22.04.4 LTS")
Copyright (c) 2025, Gurobi Optimization, LLC

Read MPS format model from file /miplib2010/k16x240.mps.bz2
Reading time = 0.01 seconds
k16x240: 256 rows, 480 columns, 960 nonzeros

Using Gurobi shared library /nfs/shared/static-builds/gurobi1202

CPU model: Intel(R) Xeon(R) E-2388G CPU @ 3.20GHz, instruction set [SSE2|AVX|AVX2|AVX512]
Thread count: 8 physical cores, 16 logical processors, using up to 16 threads

Non-default parameters:
TimeLimit  300
SoftMemLimit  125
MIPFocus  3
Presolve  1
Seed  1

Optimize a model with 256 rows, 480 columns and 960 nonzeros
Model fingerprint: 0x4e80885f
Variable types: 240 continuous, 240 integer (240 binary)
Coefficient statistics:
  Matrix range     [1e+00, 1e+03]
  Objective range  [1e+00, 1e+03]
  Bounds range     [1e+00, 1e+03]
  RHS range        [4e+00, 4e+02]
Found heuristic solution: objective 18783.000000
Presolve time: 0.00s
Presolved: 256 rows, 480 columns, 960 nonzeros
Variable types: 240 continuous, 240 integer (240 binary)

Root relaxation: objective 2.769838e+03, 51 iterations, 0.00 seconds (0.00 work units)

    Nodes    |    Current Node    |     Objective Bounds      |     Work
 Expl Unexpl |  Obj  Depth IntInf | Incumbent    BestBd   Gap | It/Node Time

     0     0 2769.83800    0   14 18783.0000 2769.83800  85.3%     -    0s
H    0     0                    11359.000000 2769.83800  75.6%     -    0s
H    0     0                    11342.000000 2769.83800  75.6%     -    0s
H    0     0                    11195.000000 2769.83800  75.3%     -    0s
H    0     0                    11088.000000 2769.83800  75.0%     -    0s
H    0     0                    11074.000000 2769.83800  75.0%     -    0s
H    0     0                    10916.000000 8116.87580  25.6%     -    0s
     0     0 8116.87580    0   26 10916.0000 8116.87580  25.6%     -    0s
H    0     0                    10838.000000 8182.85928  24.5%     -    0s
H    0     0                    10836.000000 8182.85928  24.5%     -    0s
H    0     0                    10826.000000 8182.85928  24.4%     -    0s
H    0     0                    10806.000000 8182.85928  24.3%     -    0s
     0     0 8741.28533    0   24 10806.0000 8741.28533  19.1%     -    0s
H    0     0                    10794.000000 8919.90033  17.4%     -    0s
H    0     0                    10750.000000 8919.90033  17.0%     -    0s
     0     0 9005.96027    0   31 10750.0000 9005.96027  16.2%     -    0s
     0     0 9126.63783    0   33 10750.0000 9126.63783  15.1%     -    0s
     0     0 9126.63783    0   31 10750.0000 9126.63783  15.1%     -    0s
     0     0 9130.74861    0   37 10750.0000 9130.74861  15.1%     -    0s
     0     0 9276.97696    0   33 10750.0000 9276.97696  13.7%     -    0s
H    0     0                    10732.000000 9276.97696  13.6%     -    0s
H    0     0                    10678.000000 9276.97696  13.1%     -    0s
     0     0 9280.36239    0   34 10678.0000 9280.36239  13.1%     -    0s
     0     0 9310.90124    0   34 10678.0000 9310.90124  12.8%     -    0s
     0     0 9310.90124    0   34 10678.0000 9310.90124  12.8%     -    0s
     0     2 9310.90124    0   34 10678.0000 9310.90124  12.8%     -    0s
H  177   183                    10674.000000 9451.21953  11.5%  52.7    0s
  3849  3032     cutoff   26      10674.0000 10183.3066  4.60%  90.6    5s
 17545  9436     cutoff   30      10674.0000 10452.7891  2.07%  64.4   10s
 50361   218     cutoff   32      10674.0000 10669.7378  0.04%  38.3   15s

Cutting planes:
  Lift-and-project: 6
  Cover: 3
  Implied bound: 11
  Dual implied bound: 6
  MIR: 134
  Flow cover: 529
  Flow path: 43
  Zero half: 27
  Network: 14
  Relax-and-lift: 1

Explored 50632 nodes (1931788 simplex iterations) in 15.02 seconds (22.03 work units)
Thread count was 16 (of 16 available processors)

Solution count 10: 10674 10678 10732 ... 10916

Optimal solution found (tolerance 1.00e-04)
Best objective 1.067400000000e+04, best bound 1.067300000000e+04, gap 0.0094%
